p wcnf 165 82 83 
1 55 115 0 
1 142 -75 0 
1 62 -75 0 
1 8 -49 0 
1 161 11 0 
1 92 -68 0 
1 -116 133 0 
1 -139 72 0 
1 95 124 0 
1 -62 119 0 
1 154 -101 0 
1 48 -139 0 
1 -112 12 0 
1 133 -99 0 
1 -35 139 0 
1 -110 68 0 
1 -36 -68 0 
1 -142 69 0 
1 -63 -15 0 
1 77 -121 0 
1 9 -102 0 
1 -55 -145 0 
1 -58 30 0 
1 -59 148 0 
1 11 -46 0 
1 -117 131 0 
1 55 9 0 
1 -5 -23 0 
1 51 124 0 
1 103 -52 0 
1 -104 38 0 
1 77 118 0 
1 57 15 0 
1 92 139 0 
1 -14 90 0 
1 -26 122 0 
1 -122 -128 0 
1 -131 -165 0 
1 -92 41 0 
1 43 141 0 
1 -88 112 0 
1 61 -108 0 
1 -1 -131 0 
1 -13 -156 0 
1 -102 -141 0 
1 -153 79 0 
1 127 -25 0 
1 -164 -50 0 
1 -145 43 0 
1 89 -1 0 
1 15 14 0 
1 161 -57 0 
1 -111 -100 0 
1 -62 -36 0 
1 129 -115 0 
1 43 -145 0 
1 141 59 0 
1 -165 -99 0 
1 -122 110 0 
1 -81 -90 0 
1 -91 66 0 
1 -125 -23 0 
1 145 52 0 
1 -40 86 0 
1 155 92 0 
1 164 111 0 
1 -127 75 0 
1 -59 92 0 
1 156 127 0 
1 78 -162 0 
1 64 136 0 
1 156 -78 0 
1 163 -13 0 
1 132 6 0 
1 -92 -49 0 
1 66 -79 0 
1 160 -19 0 
1 -21 104 0 
1 81 22 0 
1 -156 89 0 
1 -15 37 0 
1 80 122 0 
